sat

(objectives
 ((bvadd PriceProv13 (bvadd PriceProv12 (bvadd PriceProv11 (bvadd PriceProv10 (bvadd PriceProv9 (bvadd PriceProv8 (bvadd PriceProv7 (bvadd PriceProv6 (bvadd PriceProv5 (bvadd PriceProv4 (bvadd PriceProv3 (bvadd PriceProv1 PriceProv2)))))))))))) (_ bv13245 32))
)
;; statistics
(
 :cnf-variables 1646
 :cnf-literals 4980
 :cnf-clauses 2250
 :sat-checks 15
 :sat-restarts 146
 :sat-decisions 1208010
 :sat-random-decisions 638
 :sat-propagations 4304032091
 :sat-theory-propagations 0
 :sat-watched-clauses-visited 7321645696
 :sat-binary-watched-clauses-visited 2982810902
 :sat-conflicts 855551
 :sat-theory-conflicts 0
 :theory-necessary-interface-equalities 0
 :theory-extra-interface-equalities 0
 :euf-total-calls 1223145
 :euf-complete-calls 10
 :euf-conflicts 0
 :euf-implications 0
 :euf-explanations 0
 :euf-egraph-nodes-created 92985
 :euf-egraph-nodes-deleted 88472
 :euf-num-asserted-equalities 44843618
 :euf-num-asserted-inequalities 24151258
 :euf-num-merges 111924309
 :euf-num-merges-undone 111924309
 :euf-num-atoms-retold 21248
 :la-total-calls 1223145
 :la-complete-calls 10
 :la-conflicts 0
 :la-implications 0
 :la-explanations 0
 :la-num-equalities-split 0
 :la-num-tableau-rows 0
 :la-num-tableau-variables 0
 :bv-total-calls 1223145
 :bv-complete-calls 10
 :bv-conflicts 0
 :bv-implications 0
 :bv-explanations 0
 :fp-total-calls 1223145
 :fp-complete-calls 10
 :fp-conflicts 0
 :fp-implications 0
 :fp-explanations 0
 :arr-total-calls 1223145
 :arr-complete-calls 10
 :arr-conflicts 0
 :arr-implications 0
 :arr-explanations 0
 :arr-write-lemmas-added 0
 :arr-row-lemmas-added 0
 :arr-ext-lemmas-added 0
 :arr-const-lemmas-added 0
 :na-total-calls 1223145
 :na-complete-calls 10
 :na-conflicts 0
 :na-implications 0
 :na-explanations 0
 :na-num_nonlinear_multiplications 0
 :na-num_axiom_checks 0
 :na-num_zero_lemmas 0
 :na-num_sign_lemmas 0
 :na-num_neutral_lemmas 0
 :na-num_proportionality_lemmas 0
 :na-num_bound_lemmas 0
 :na-num_tangent_lemmas 0
 :na-num_monotonicity_lemmas 0
 :na-num_sat_checks 0
 :na-axiom_check_time 0.000
 :na-sat_check_time 0.000
 :time-seconds 1918.895
 :memory-mb 502.871
)
